c Reduced graph for GEOM90 generated by Cyril Grelier
p edge 90 441
e 1 2
e 1 3
e 1 4
e 1 5
e 1 11
e 1 12
e 1 15
e 1 16
e 1 21
e 1 23
e 1 26
e 1 31
e 1 44
e 1 66
e 1 73
e 2 3
e 2 4
e 2 15
e 2 16
e 2 21
e 2 23
e 2 27
e 2 29
e 2 33
e 2 38
e 2 40
e 2 45
e 2 47
e 2 49
e 3 4
e 3 15
e 3 16
e 3 21
e 3 22
e 3 23
e 3 27
e 3 29
e 3 33
e 3 40
e 3 45
e 3 47
e 3 49
e 4 5
e 4 12
e 4 15
e 4 16
e 4 21
e 4 22
e 4 23
e 4 26
e 4 31
e 4 39
e 4 54
e 4 76
e 5 7
e 5 11
e 5 12
e 5 13
e 5 23
e 5 26
e 5 31
e 5 35
e 5 44
e 5 55
e 5 66
e 5 73
e 6 7
e 6 8
e 6 9
e 6 10
e 6 13
e 6 14
e 6 17
e 6 18
e 6 19
e 6 24
e 6 25
e 6 35
e 6 37
e 6 44
e 7 8
e 7 11
e 7 12
e 7 13
e 7 14
e 7 24
e 7 26
e 7 31
e 7 35
e 7 44
e 7 55
e 7 66
e 8 9
e 8 10
e 8 13
e 8 14
e 8 17
e 8 18
e 8 19
e 8 24
e 8 25
e 8 35
e 8 37
e 8 82
e 9 10
e 9 13
e 9 14
e 9 17
e 9 18
e 9 20
e 9 24
e 9 25
e 9 34
e 9 42
e 9 51
e 9 82
e 10 17
e 10 18
e 10 20
e 10 24
e 10 34
e 10 42
e 10 51
e 10 65
e 10 70
e 10 80
e 10 82
e 11 12
e 11 13
e 11 14
e 11 24
e 11 26
e 11 31
e 11 35
e 11 44
e 11 55
e 11 66
e 12 13
e 12 23
e 12 26
e 12 31
e 12 44
e 12 54
e 12 55
e 12 76
e 13 20
e 13 24
e 13 26
e 13 31
e 13 55
e 13 82
e 14 18
e 14 19
e 14 24
e 14 25
e 14 35
e 14 37
e 14 44
e 14 66
e 15 16
e 15 21
e 15 22
e 15 23
e 15 29
e 15 39
e 15 54
e 15 63
e 15 84
e 16 21
e 16 22
e 16 23
e 16 29
e 16 39
e 16 63
e 16 84
e 16 88
e 17 18
e 17 19
e 17 25
e 17 32
e 17 34
e 17 37
e 17 57
e 17 80
e 17 81
e 18 19
e 18 25
e 18 32
e 18 34
e 18 37
e 18 57
e 18 80
e 19 25
e 19 32
e 19 34
e 19 37
e 19 41
e 19 57
e 19 80
e 19 81
e 20 24
e 20 42
e 20 51
e 20 65
e 20 67
e 20 68
e 20 70
e 20 82
e 20 90
e 21 22
e 21 23
e 21 27
e 21 29
e 21 39
e 21 63
e 22 23
e 22 29
e 22 39
e 22 54
e 22 63
e 22 84
e 22 88
e 23 27
e 23 39
e 24 26
e 24 35
e 24 82
e 25 32
e 25 34
e 25 37
e 25 41
e 25 57
e 26 31
e 26 54
e 26 55
e 26 76
e 27 29
e 27 33
e 27 38
e 27 40
e 27 45
e 27 47
e 27 49
e 27 59
e 28 50
e 28 56
e 28 60
e 28 62
e 28 64
e 28 71
e 28 72
e 28 74
e 28 77
e 28 79
e 28 83
e 28 86
e 29 40
e 29 45
e 29 63
e 29 88
e 30 36
e 30 41
e 30 43
e 30 46
e 30 50
e 30 52
e 30 53
e 30 58
e 30 62
e 30 72
e 30 77
e 31 54
e 31 55
e 31 76
e 32 37
e 32 41
e 32 43
e 32 52
e 32 57
e 32 58
e 32 81
e 33 38
e 33 40
e 33 45
e 33 47
e 33 49
e 33 59
e 33 61
e 33 73
e 34 42
e 34 51
e 34 57
e 34 80
e 34 81
e 35 37
e 35 44
e 35 66
e 35 73
e 36 43
e 36 46
e 36 48
e 36 52
e 36 53
e 36 58
e 36 85
e 36 87
e 36 89
e 37 41
e 38 40
e 38 45
e 38 47
e 38 49
e 38 59
e 38 61
e 38 73
e 39 54
e 39 63
e 39 76
e 39 84
e 40 45
e 40 47
e 40 49
e 40 59
e 41 43
e 41 50
e 41 52
e 41 58
e 41 62
e 42 51
e 42 65
e 42 67
e 42 68
e 42 70
e 42 90
e 43 46
e 43 48
e 43 52
e 43 53
e 43 57
e 43 58
e 44 66
e 44 73
e 45 47
e 45 49
e 45 59
e 46 48
e 46 52
e 46 53
e 46 58
e 46 85
e 46 87
e 46 89
e 47 49
e 47 59
e 47 61
e 48 52
e 48 53
e 48 58
e 48 85
e 48 87
e 48 89
e 49 59
e 50 62
e 50 71
e 50 72
e 50 77
e 50 83
e 50 86
e 51 65
e 51 67
e 51 68
e 51 70
e 52 53
e 52 58
e 53 58
e 53 72
e 53 77
e 54 55
e 54 76
e 55 76
e 56 60
e 56 64
e 56 69
e 56 71
e 56 74
e 56 75
e 56 78
e 56 79
e 57 80
e 57 81
e 59 61
e 59 69
e 60 64
e 60 69
e 60 74
e 60 75
e 60 78
e 60 79
e 61 69
e 61 75
e 61 83
e 61 86
e 62 72
e 62 77
e 62 83
e 62 86
e 63 84
e 63 88
e 64 71
e 64 74
e 64 75
e 64 78
e 64 79
e 65 67
e 65 68
e 65 70
e 65 90
e 66 73
e 67 68
e 67 70
e 67 90
e 68 70
e 68 90
e 69 75
e 69 78
e 69 83
e 71 72
e 71 77
e 71 79
e 72 77
e 74 75
e 74 78
e 74 79
e 75 78
e 78 79
e 80 81
e 83 86
e 84 88
e 85 87
e 85 89
e 87 89
